15 30 73
1 5 3
1 6 2
2 5 2
2 6 3
2 8 1
2 10 5
2 12 5
3 5 2
3 10 4
3 11 1
3 14 5
4 6 4
4 8 4
4 11 5
4 13 1
5 6 4
5 8 4
5 12 5
6 7 1
6 8 3
6 12 2
6 14 5
6 15 2
7 9 4
7 11 2
7 13 3
8 11 3
8 12 5
9 11 3
14 15 3
